20	5
0	6	2	6	1	5	4	3
1	3	7	12	15
2	2	14	7
3	3	7	11	15
4	2	17	7
5	1	8
6	1	16
7	1	19
8	1	20
9	1	8
10	0
11	2	14	18
12	0
13	1	19
14	1	17
15	1	14
16	1	9
17	1	10
18	0
19	0
20	1	21
21	0
0	0	0	0	0	0	0
1	8	2	3	2	4	1
2	10	5	3	1	5	1
3	5	2	1	1	1	2
4	8	3	3	4	1	1
5	2	5	1	2	1	3
6	9	3	5	2	4	5
7	2	1	3	2	5	4
8	1	5	1	5	4	4
9	1	1	4	4	3	5
10	5	2	4	2	1	4
11	4	3	1	1	1	4
12	10	5	1	4	1	1
13	10	1	5	1	4	3
14	9	4	5	3	4	3
15	9	2	3	2	4	3
16	2	2	4	3	4	5
17	4	4	5	1	1	3
18	7	4	2	1	4	2
19	6	4	1	3	4	3
20	6	4	1	4	3	1
21	0	0	0	0	0	0
5	5	5	5	5
